Code 2634
Dimension, Median 
   128       16     
 Facility, Client, Transportation Cost
     1        1           0
     1        2           3
     1        3           3
     1        5           4
     1        9           2
     1       17           4
     1       33           3
     1       65           0
     2        1           3
     2        2           0
     2        4           4
     2        6           0
     2       10           2
     2       18           2
     2       34           3
     2       66           3
     3        1           0
     3        3           2
     3        4           3
     3        7           0
     3       11           1
     3       19           2
     3       35           1
     3       67           0
     4        2           2
     4        3           2
     4        4           2
     4        8           0
     4       12           1
     4       20           0
     4       36           4
     4       68           0
     5        1           1
     5        5           2
     5        6           0
     5        7           4
     5       13           4
     5       21           0
     5       37           0
     5       69           0
     6        2           2
     6        5           2
     6        6           2
     6        8           2
     6       14           3
     6       22           2
     6       38           2
     6       70           0
     7        3           3
     7        5           0
     7        7           1
     7        8           1
     7       15           0
     7       23           3
     7       39           1
     7       71           0
     8        4           2
     8        6           2
     8        7           1
     8        8           4
     8       16           0
     8       24           2
     8       40           3
     8       72           2
     9        1           4
     9        9           2
     9       10           0
     9       11           3
     9       13           2
     9       25           2
     9       41           1
     9       73           3
    10        2           0
    10        9           4
    10       10           1
    10       12           2
    10       14           2
    10       26           0
    10       42           3
    10       74           1
    11        3           1
    11        9           0
    11       11           1
    11       12           4
    11       15           2
    11       27           0
    11       43           2
    11       75           3
    12        4           3
    12       10           0
    12       11           0
    12       12           0
    12       16           1
    12       28           3
    12       44           2
    12       76           3
    13        5           3
    13        9           2
    13       13           1
    13       14           2
    13       15           0
    13       29           2
    13       45           4
    13       77           3
    14        6           0
    14       10           0
    14       13           0
    14       14           2
    14       16           3
    14       30           4
    14       46           0
    14       78           4
    15        7           2
    15       11           1
    15       13           3
    15       15           4
    15       16           3
    15       31           2
    15       47           4
    15       79           4
    16        8           4
    16       12           3
    16       14           3
    16       15           2
    16       16           4
    16       32           1
    16       48           0
    16       80           4
    17        1           2
    17       17           0
    17       18           0
    17       19           0
    17       21           4
    17       25           0
    17       49           4
    17       81           4
    18        2           2
    18       17           4
    18       18           3
    18       20           1
    18       22           4
    18       26           3
    18       50           1
    18       82           3
    19        3           4
    19       17           2
    19       19           0
    19       20           2
    19       23           3
    19       27           2
    19       51           1
    19       83           3
    20        4           4
    20       18           0
    20       19           0
    20       20           0
    20       24           0
    20       28           3
    20       52           0
    20       84           1
    21        5           1
    21       17           0
    21       21           0
    21       22           4
    21       23           3
    21       29           0
    21       53           3
    21       85           1
    22        6           4
    22       18           2
    22       21           3
    22       22           1
    22       24           1
    22       30           0
    22       54           0
    22       86           4
    23        7           1
    23       19           4
    23       21           1
    23       23           1
    23       24           4
    23       31           3
    23       55           4
    23       87           4
    24        8           0
    24       20           0
    24       22           4
    24       23           3
    24       24           4
    24       32           3
    24       56           4
    24       88           2
    25        9           2
    25       17           0
    25       25           4
    25       26           2
    25       27           1
    25       29           1
    25       57           0
    25       89           4
    26       10           0
    26       18           0
    26       25           3
    26       26           4
    26       28           4
    26       30           4
    26       58           3
    26       90           1
    27       11           1
    27       19           2
    27       25           1
    27       27           1
    27       28           0
    27       31           2
    27       59           4
    27       91           2
    28       12           3
    28       20           1
    28       26           3
    28       27           2
    28       28           0
    28       32           3
    28       60           3
    28       92           1
    29       13           2
    29       21           0
    29       25           1
    29       29           2
    29       30           3
    29       31           4
    29       61           0
    29       93           0
    30       14           0
    30       22           0
    30       26           1
    30       29           1
    30       30           4
    30       32           0
    30       62           0
    30       94           2
    31       15           3
    31       23           1
    31       27           1
    31       29           4
    31       31           2
    31       32           2
    31       63           4
    31       95           1
    32       16           2
    32       24           1
    32       28           0
    32       30           0
    32       31           4
    32       32           3
    32       64           4
    32       96           0
    33        1           0
    33       33           4
    33       34           0
    33       35           4
    33       37           1
    33       41           0
    33       49           0
    33       97           2
    34        2           4
    34       33           2
    34       34           4
    34       36           4
    34       38           4
    34       42           3
    34       50           2
    34       98           1
    35        3           2
    35       33           1
    35       35           0
    35       36           0
    35       39           0
    35       43           4
    35       51           1
    35       99           4
    36        4           3
    36       34           0
    36       35           3
    36       36           0
    36       40           4
    36       44           3
    36       52           0
    36      100           2
    37        5           0
    37       33           1
    37       37           0
    37       38           4
    37       39           0
    37       45           3
    37       53           2
    37      101           1
    38        6           1
    38       34           3
    38       37           4
    38       38           2
    38       40           0
    38       46           3
    38       54           4
    38      102           3
    39        7           0
    39       35           2
    39       37           4
    39       39           0
    39       40           3
    39       47           4
    39       55           0
    39      103           1
    40        8           0
    40       36           1
    40       38           4
    40       39           1
    40       40           2
    40       48           2
    40       56           4
    40      104           0
    41        9           2
    41       33           4
    41       41           2
    41       42           4
    41       43           3
    41       45           3
    41       57           3
    41      105           1
    42       10           1
    42       34           3
    42       41           1
    42       42           0
    42       44           0
    42       46           2
    42       58           2
    42      106           1
    43       11           2
    43       35           0
    43       41           0
    43       43           2
    43       44           1
    43       47           1
    43       59           0
    43      107           2
    44       12           0
    44       36           3
    44       42           2
    44       43           1
    44       44           0
    44       48           0
    44       60           2
    44      108           1
    45       13           3
    45       37           2
    45       41           4
    45       45           2
    45       46           3
    45       47           1
    45       61           3
    45      109           1
    46       14           1
    46       38           1
    46       42           1
    46       45           2
    46       46           3
    46       48           3
    46       62           1
    46      110           4
    47       15           4
    47       39           1
    47       43           0
    47       45           0
    47       47           3
    47       48           2
    47       63           0
    47      111           2
    48       16           3
    48       40           4
    48       44           0
    48       46           4
    48       47           2
    48       48           1
    48       64           3
    48      112           1
    49       17           0
    49       33           1
    49       49           3
    49       50           2
    49       51           3
    49       53           4
    49       57           1
    49      113           2
    50       18           3
    50       34           0
    50       49           2
    50       50           3
    50       52           4
    50       54           4
    50       58           0
    50      114           0
    51       19           3
    51       35           4
    51       49           0
    51       51           1
    51       52           3
    51       55           4
    51       59           4
    51      115           4
    52       20           4
    52       36           0
    52       50           4
    52       51           4
    52       52           2
    52       56           3
    52       60           4
    52      116           4
    53       21           2
    53       37           4
    53       49           0
    53       53           1
    53       54           0
    53       55           0
    53       61           3
    53      117           4
    54       22           0
    54       38           4
    54       50           0
    54       53           4
    54       54           0
    54       56           1
    54       62           2
    54      118           2
    55       23           1
    55       39           1
    55       51           2
    55       53           0
    55       55           0
    55       56           3
    55       63           3
    55      119           3
    56       24           0
    56       40           2
    56       52           3
    56       54           1
    56       55           4
    56       56           1
    56       64           0
    56      120           3
    57       25           3
    57       41           1
    57       49           1
    57       57           3
    57       58           1
    57       59           0
    57       61           4
    57      121           2
    58       26           2
    58       42           3
    58       50           2
    58       57           4
    58       58           0
    58       60           2
    58       62           0
    58      122           4
    59       27           3
    59       43           1
    59       51           0
    59       57           3
    59       59           2
    59       60           4
    59       63           4
    59      123           4
    60       28           3
    60       44           3
    60       52           2
    60       58           4
    60       59           4
    60       60           0
    60       64           2
    60      124           1
    61       29           0
    61       45           1
    61       53           2
    61       57           3
    61       61           0
    61       62           4
    61       63           3
    61      125           4
    62       30           4
    62       46           1
    62       54           2
    62       58           0
    62       61           2
    62       62           3
    62       64           0
    62      126           0
    63       31           3
    63       47           2
    63       55           2
    63       59           1
    63       61           2
    63       63           3
    63       64           1
    63      127           4
    64       32           2
    64       48           4
    64       56           0
    64       60           4
    64       62           3
    64       63           4
    64       64           2
    64      128           3
    65        1           2
    65       65           3
    65       66           2
    65       67           3
    65       69           2
    65       73           1
    65       81           1
    65       97           3
    66        2           4
    66       65           2
    66       66           2
    66       68           3
    66       70           3
    66       74           1
    66       82           3
    66       98           0
    67        3           1
    67       65           3
    67       67           1
    67       68           0
    67       71           4
    67       75           0
    67       83           0
    67       99           3
    68        4           1
    68       66           1
    68       67           1
    68       68           1
    68       72           1
    68       76           1
    68       84           3
    68      100           1
    69        5           4
    69       65           3
    69       69           2
    69       70           4
    69       71           0
    69       77           4
    69       85           2
    69      101           3
    70        6           2
    70       66           0
    70       69           2
    70       70           3
    70       72           1
    70       78           0
    70       86           2
    70      102           0
    71        7           0
    71       67           1
    71       69           1
    71       71           1
    71       72           0
    71       79           3
    71       87           3
    71      103           1
    72        8           1
    72       68           3
    72       70           3
    72       71           4
    72       72           1
    72       80           3
    72       88           2
    72      104           3
    73        9           3
    73       65           0
    73       73           0
    73       74           1
    73       75           0
    73       77           4
    73       89           2
    73      105           1
    74       10           4
    74       66           0
    74       73           4
    74       74           1
    74       76           4
    74       78           3
    74       90           4
    74      106           1
    75       11           2
    75       67           1
    75       73           1
    75       75           4
    75       76           3
    75       79           3
    75       91           0
    75      107           3
    76       12           3
    76       68           4
    76       74           0
    76       75           2
    76       76           1
    76       80           4
    76       92           1
    76      108           4
    77       13           4
    77       69           4
    77       73           0
    77       77           3
    77       78           3
    77       79           2
    77       93           4
    77      109           3
    78       14           3
    78       70           1
    78       74           3
    78       77           3
    78       78           4
    78       80           3
    78       94           0
    78      110           1
    79       15           2
    79       71           0
    79       75           2
    79       77           3
    79       79           0
    79       80           4
    79       95           1
    79      111           1
    80       16           4
    80       72           4
    80       76           3
    80       78           3
    80       79           3
    80       80           4
    80       96           2
    80      112           4
    81       17           3
    81       65           0
    81       81           0
    81       82           0
    81       83           4
    81       85           1
    81       89           0
    81      113           4
    82       18           0
    82       66           3
    82       81           4
    82       82           2
    82       84           1
    82       86           0
    82       90           2
    82      114           2
    83       19           3
    83       67           4
    83       81           4
    83       83           1
    83       84           3
    83       87           2
    83       91           2
    83      115           3
    84       20           4
    84       68           2
    84       82           0
    84       83           0
    84       84           2
    84       88           1
    84       92           3
    84      116           3
    85       21           1
    85       69           2
    85       81           0
    85       85           0
    85       86           1
    85       87           1
    85       93           3
    85      117           1
    86       22           1
    86       70           1
    86       82           3
    86       85           1
    86       86           4
    86       88           0
    86       94           2
    86      118           2
    87       23           3
    87       71           3
    87       83           1
    87       85           3
    87       87           0
    87       88           4
    87       95           0
    87      119           0
    88       24           1
    88       72           3
    88       84           3
    88       86           1
    88       87           2
    88       88           1
    88       96           0
    88      120           3
    89       25           1
    89       73           1
    89       81           4
    89       89           1
    89       90           2
    89       91           0
    89       93           3
    89      121           0
    90       26           4
    90       74           4
    90       82           4
    90       89           0
    90       90           3
    90       92           1
    90       94           2
    90      122           2
    91       27           3
    91       75           1
    91       83           0
    91       89           0
    91       91           1
    91       92           0
    91       95           2
    91      123           1
    92       28           3
    92       76           3
    92       84           0
    92       90           1
    92       91           2
    92       92           1
    92       96           2
    92      124           1
    93       29           1
    93       77           2
    93       85           1
    93       89           0
    93       93           4
    93       94           4
    93       95           1
    93      125           0
    94       30           3
    94       78           1
    94       86           4
    94       90           0
    94       93           4
    94       94           1
    94       96           3
    94      126           0
    95       31           0
    95       79           1
    95       87           2
    95       91           1
    95       93           4
    95       95           4
    95       96           3
    95      127           0
    96       32           3
    96       80           0
    96       88           1
    96       92           3
    96       94           0
    96       95           4
    96       96           4
    96      128           0
    97       33           2
    97       65           0
    97       97           2
    97       98           0
    97       99           2
    97      101           3
    97      105           0
    97      113           2
    98       34           2
    98       66           4
    98       97           3
    98       98           4
    98      100           4
    98      102           1
    98      106           2
    98      114           3
    99       35           4
    99       67           2
    99       97           0
    99       99           1
    99      100           4
    99      103           3
    99      107           1
    99      115           4
   100       36           2
   100       68           0
   100       98           4
   100       99           4
   100      100           0
   100      104           0
   100      108           4
   100      116           3
   101       37           4
   101       69           0
   101       97           3
   101      101           1
   101      102           0
   101      103           3
   101      109           0
   101      117           2
   102       38           2
   102       70           1
   102       98           4
   102      101           4
   102      102           3
   102      104           1
   102      110           0
   102      118           2
   103       39           4
   103       71           0
   103       99           4
   103      101           2
   103      103           1
   103      104           4
   103      111           1
   103      119           1
   104       40           1
   104       72           3
   104      100           3
   104      102           4
   104      103           4
   104      104           4
   104      112           4
   104      120           0
   105       41           3
   105       73           2
   105       97           4
   105      105           1
   105      106           3
   105      107           4
   105      109           3
   105      121           4
   106       42           0
   106       74           4
   106       98           4
   106      105           4
   106      106           1
   106      108           1
   106      110           1
   106      122           4
   107       43           3
   107       75           1
   107       99           2
   107      105           3
   107      107           3
   107      108           3
   107      111           0
   107      123           3
   108       44           2
   108       76           3
   108      100           4
   108      106           3
   108      107           1
   108      108           4
   108      112           2
   108      124           0
   109       45           3
   109       77           2
   109      101           3
   109      105           2
   109      109           0
   109      110           4
   109      111           0
   109      125           4
   110       46           2
   110       78           1
   110      102           4
   110      106           1
   110      109           4
   110      110           4
   110      112           4
   110      126           2
   111       47           0
   111       79           3
   111      103           3
   111      107           1
   111      109           0
   111      111           2
   111      112           3
   111      127           2
   112       48           4
   112       80           1
   112      104           1
   112      108           3
   112      110           2
   112      111           3
   112      112           2
   112      128           4
   113       49           1
   113       81           1
   113       97           0
   113      113           1
   113      114           0
   113      115           1
   113      117           3
   113      121           2
   114       50           4
   114       82           4
   114       98           3
   114      113           0
   114      114           1
   114      116           4
   114      118           0
   114      122           0
   115       51           0
   115       83           1
   115       99           0
   115      113           4
   115      115           0
   115      116           1
   115      119           4
   115      123           2
   116       52           0
   116       84           3
   116      100           0
   116      114           0
   116      115           1
   116      116           2
   116      120           0
   116      124           4
   117       53           3
   117       85           4
   117      101           4
   117      113           2
   117      117           2
   117      118           1
   117      119           2
   117      125           0
   118       54           3
   118       86           2
   118      102           0
   118      114           4
   118      117           3
   118      118           0
   118      120           4
   118      126           0
   119       55           2
   119       87           2
   119      103           0
   119      115           2
   119      117           1
   119      119           0
   119      120           1
   119      127           0
   120       56           0
   120       88           2
   120      104           2
   120      116           4
   120      118           4
   120      119           0
   120      120           1
   120      128           1
   121       57           0
   121       89           2
   121      105           1
   121      113           3
   121      121           0
   121      122           3
   121      123           0
   121      125           1
   122       58           2
   122       90           1
   122      106           2
   122      114           3
   122      121           4
   122      122           0
   122      124           0
   122      126           0
   123       59           0
   123       91           0
   123      107           4
   123      115           2
   123      121           0
   123      123           1
   123      124           3
   123      127           0
   124       60           1
   124       92           1
   124      108           3
   124      116           0
   124      122           4
   124      123           1
   124      124           0
   124      128           3
   125       61           3
   125       93           4
   125      109           4
   125      117           1
   125      121           2
   125      125           2
   125      126           0
   125      127           3
   126       62           2
   126       94           1
   126      110           4
   126      118           4
   126      122           3
   126      125           2
   126      126           4
   126      128           3
   127       63           1
   127       95           0
   127      111           1
   127      119           3
   127      123           4
   127      125           4
   127      127           4
   127      128           3
   128       64           1
   128       96           4
   128      112           0
   128      120           2
   128      124           1
   128      126           4
   128      127           3
   128      128           3
